c SaDiCaL SAT Solver
c Copyright (C) 2018 by Armin Biere JKU
c
c Version 00n 481e664a7ffa9a307d3a0dad517daf5dde1989ef
c Compiler Apple clang version 15.0.0 (clang-1500.3.9.4)
c Options gcc -Wall -O3 -DNDEBUG -DNLOG
c proof path 'tests/add4.prf'
c
c all options have default values
c
c parsing 'tests/add4.cnf'
c found 'p cnf 60 157' header
c parsed DIMACS in 0.00 seconds
c 
c
c   time      reduced redundant irredundant
c       space  restarts glue     variables
c           level conflicts size   remaining
c
c s 0.00 0.0 0.0 0 0 0 0 0.0 0.0 154 59 98%
c s 0.00 0.1 1.9 0 3 89 1 2.9 3.2 151 58 97%
c s 0.00 0.1 2.3 0 8 170 7 3.0 3.2 148 57 95%
c s 0.00 0.1 2.2 0 13 375 13 2.9 3.8 134 52 87%
c s 0.00 0.1 2.2 0 17 440 6 2.8 3.7 85 35 58%
c s 0.00 0.1 2.1 0 19 477 6 2.8 3.5 82 34 57%
c s 0.00 0.1 2.0 0 19 478 1 2.7 3.5 43 19 32%
c s 0.00 0.1 1.9 0 19 483 1 2.6 3.4 38 16 27%
c s 0.00 0.1 1.9 0 19 486 1 2.6 3.3 35 15 25%
c s 0.00 0.1 1.8 0 19 491 1 2.5 3.2 32 14 23%
c s 0.00 0.1 1.7 0 19 495 0 2.5 3.1 4 2 3%
c 0 0.00 0.1 1.7 0 19 497 0 2.4 3.1 4 0 0%
c
s UNSATISFIABLE
c
c simplifications:            11          45  conflicts/simplification  100%
c reductions:                  0           0  conflicts/reduction       100%
c restarts:                   19          26  conflicts/restart         100%
c conflicts:                 497      108208  conflicts/sec              82%
c decisions:                 103       22425  decisions/sec              32%
c propagations:            17105         3.7  millions/sec               84%
c
c pure:                        0           0% of look-aheads
c look-ahead:                103         100% of outer decisions         32%
c pruned:                     33           7% of outer conflicts          5%
c generated reducts:         106          31% satisfiable
c average size:               53          44% of all clauses
c pruning failed:             73          69% per reduct
c filter checks:            1714          28% of outer satisfied clauses
c average filtered:          4.2           7% per reduct
c assumed literals:         1831         1.1  per filter check
c
c collected clauses:        0.01 MB       98% of allocated clauses        6%
c allocated clauses:        0.01 MB       11% of allocated memory         6%
c maximum heap:             0.03 MB        0% of resident set size       54%
c
c looking:                  0.00 sec       1% of process time
c filtering:                0.00 sec      18% of process time
c pruning:                  0.00 sec      53% of process time
c simplifying:              0.00 sec       1% of process time
c
c resident set size:     1216.00 MB
c total process time:       0.00 sec
